p tw 288 325
1 2
2 113
3 14
3 237
4 5
5 6
6 7
7 8
8 9
9 10
10 11
11 12
12 13
13 15
14 25
15 16
15 17
16 209
17 18
18 19
19 20
19 30
20 21
21 22
21 30
22 23
23 24
24 26
24 30
25 36
25 284
26 27
27 28
28 29
29 49
30 31
31 32
32 33
33 34
34 35
35 37
36 47
37 38
37 10
38 39
39 40
40 41
41 42
41 136
42 43
43 44
44 45
45 46
46 48
47 58
47 13
48 49
48 274
49 50
50 51
51 52
52 53
53 54
54 55
55 56
56 57
57 59
58 69
59 60
60 61
61 62
62 63
63 64
64 65
65 66
66 67
67 68
68 70
69 80
69 101
70 71
71 72
72 73
73 74
74 75
75 76
76 77
77 78
78 79
79 81
80 91
81 82
81 111
82 83
83 84
83 86
84 85
85 88
86 87
87 88
88 89
89 90
90 92
91 102
91 145
92 93
93 94
94 95
95 96
96 97
97 98
98 99
99 100
100 101
101 103
102 114
103 104
103 109
104 105
105 106
106 107
107 108
108 109
108 78
109 110
110 209
111 112
112 115
113 212
114 125
114 174
115 116
116 117
117 118
118 119
119 120
120 121
121 122
122 123
123 124
124 126
125 206
126 127
127 128
128 129
129 130
130 131
131 132
132 133
133 134
134 135
135 137
136 147
137 138
138 139
138 149
139 140
140 141
141 142
142 143
143 144
144 145
145 146
146 148
146 135
147 158
148 209
149 150
150 151
151 152
152 153
153 154
154 155
154 157
155 156
156 160
157 159
158 169
159 160
160 161
161 162
162 163
163 164
164 165
165 166
166 167
167 168
168 170
169 180
170 171
171 172
172 173
173 174
174 175
175 176
175 177
176 209
177 178
178 179
179 181
179 188
180 191
181 182
182 183
182 188
183 184
184 185
185 186
185 188
186 187
187 49
188 189
189 190
190 192
191 202
192 193
193 194
194 195
195 196
195 171
196 197
197 198
198 199
199 200
199 135
200 201
201 203
202 211
203 204
204 205
205 136
206 207
207 208
208 209
209 210
211 213
212 223
213 214
214 215
214 225
215 216
216 217
217 218
218 219
219 220
220 221
221 222
222 224
222 211
223 234
224 209
225 226
226 227
227 228
228 229
229 230
230 231
231 232
232 233
233 235
234 245
235 236
236 237
237 238
238 239
238 240
239 209
240 241
241 242
242 243
242 254
243 244
244 246
244 254
245 256
245 136
246 247
247 248
248 249
248 254
249 250
250 251
251 252
252 253
253 270
254 255
255 257
256 267
257 258
258 259
259 260
260 261
261 262
261 233
262 263
263 264
264 265
265 266
265 211
266 268
267 278
267 221
268 269
269 211
270 271
271 272
272 273
273 274
274 275
275 276
276 277
276 287
277 279
278 3
279 280
280 281
281 282
282 283
283 284
284 285
285 286
285 274
286 209
287 288
288 4
